SDVRP instances/custom_instances/p10_14_splitx10_0.vrp
NAME:p10_14_splitx10_
BEST_KNOWN: 0
COMMENT: 0
DIMENSION: 948
CAPACITY: 2000
EDGE_WEIGHT_FORMAT: FUNCTION
EDGE_WEIGHT_TYPE: EXACT_2D
NODE_COORD_SECTION
1 0.00000 0.00000
2 -34 -2
3 -34 -2
4 -34 -2
5 -34 -2
6 -34 -2
7 -34 -2
8 -34 -2
9 -18 38
10 -18 38
11 -18 38
12 -18 38
13 -18 38
14 -18 38
15 -18 38
16 -18 38
17 -43 36
18 -43 36
19 -43 36
20 -43 36
21 -43 36
22 -43 36
23 -43 36
24 -30 5
25 -30 5
26 -30 5
27 -20 -17
28 -20 -17
29 3 8
30 3 8
31 3 8
32 3 8
33 -42 -49
34 -42 -49
35 -42 -49
36 -7 30
37 -7 30
38 -7 30
39 -7 30
40 -38 37
41 -38 37
42 -38 37
43 -38 37
44 -38 37
45 -38 37
46 18 23
47 18 23
48 18 23
49 18 23
50 18 23
51 18 23
52 -46 5
53 -46 5
54 -46 5
55 -46 5
56 -46 5
57 -46 5
58 -26 -41
59 -26 -41
60 -26 -41
61 -26 -41
62 -26 -41
63 -43 -21
64 -43 -21
65 25 33
66 25 33
67 -28 30
68 -28 30
69 -28 30
70 -28 30
71 -28 30
72 -5 -1
73 -5 -1
74 -5 -1
75 -5 -1
76 -5 -1
77 -5 -1
78 -34 23
79 -34 23
80 -34 23
81 -34 23
82 -34 23
83 -34 23
84 -34 23
85 12 -33
86 12 -33
87 12 -33
88 35 -38
89 35 -38
90 35 -38
91 35 -38
92 35 -38
93 38 -16
94 38 -16
95 38 -16
96 38 -16
97 38 -16
98 18 47
99 18 47
100 18 47
101 18 47
102 18 47
103 -4 -35
104 -4 -35
105 -4 -35
106 -4 -35
107 -4 -35
108 -4 -35
109 47 6
110 47 6
111 47 6
112 47 6
113 29 14
114 29 14
115 29 14
116 29 14
117 29 14
118 29 14
119 38 -29
120 38 -29
121 38 -29
122 38 -29
123 38 -29
124 38 -29
125 15 -28
126 15 -28
127 15 -28
128 15 -28
129 15 -28
130 15 -28
131 -1 18
132 -1 18
133 -1 18
134 -1 18
135 -1 18
136 -1 18
137 -1 18
138 -43 -37
139 -43 -37
140 -43 -37
141 -43 -37
142 20 32
143 20 32
144 20 32
145 -23 -26
146 -23 -26
147 16 49
148 16 49
149 -30 -30
150 -30 -30
151 -30 -30
152 -3 -29
153 -3 -29
154 -3 -29
155 -3 -29
156 -40 45
157 -40 45
158 -40 45
159 -11 -48
160 -11 -48
161 -11 -48
162 -11 -48
163 -11 -48
164 -11 -48
165 -31 -37
166 -31 -37
167 -31 -37
168 -31 -37
169 -31 -37
170 -31 -37
171 -13 -27
172 -13 -27
173 -13 -27
174 -13 -27
175 -13 -27
176 -13 -27
177 -39 22
178 -39 22
179 -39 22
180 -39 22
181 -39 22
182 -39 22
183 -39 22
184 -41 30
185 -41 30
186 -41 30
187 -41 30
188 -41 30
189 -30 -13
190 -30 -13
191 -30 -13
192 -30 -13
193 -30 -13
194 -33 44
195 -33 44
196 -33 44
197 -33 44
198 -33 44
199 -15 -7
200 -15 -7
201 -15 -7
202 -15 -7
203 18 46
204 18 46
205 18 46
206 18 46
207 18 46
208 18 46
209 18 46
210 19 -38
211 19 -38
212 19 -38
213 36 -4
214 36 -4
215 36 -4
216 36 -4
217 36 -4
218 36 -4
219 36 -4
220 -38 -1
221 -38 -1
222 -38 -1
223 -38 -1
224 -38 -1
225 -38 -1
226 9 34
227 9 34
228 9 34
229 9 34
230 9 34
231 9 34
232 33 27
233 33 27
234 33 27
235 33 27
236 -6 -18
237 -6 -18
238 -6 -18
239 -6 -18
240 -43 -43
241 -43 -43
242 -43 -43
243 -43 -43
244 -43 -43
245 -43 -43
246 -43 -43
247 49 40
248 49 40
249 49 40
250 49 40
251 49 40
252 49 40
253 12 -2
254 12 -2
255 12 -2
256 12 -2
257 12 -2
258 12 -2
259 -48 -13
260 -48 -13
261 -48 -13
262 35 -34
263 35 -34
264 35 -34
265 35 -34
266 35 -34
267 -42 9
268 -42 9
269 -42 9
270 -30 -33
271 -30 -33
272 -30 -33
273 -30 -33
274 -30 -33
275 42 -35
276 42 -35
277 42 -35
278 42 -35
279 42 -35
280 10 24
281 10 24
282 10 24
283 10 24
284 -30 32
285 -30 32
286 -30 32
287 -30 32
288 -39 39
289 -39 39
290 -39 39
291 -39 39
292 41 -25
293 41 -25
294 41 -25
295 -5 36
296 -5 36
297 -5 36
298 -5 36
299 -5 36
300 -21 29
301 -21 29
302 -21 29
303 -21 29
304 -21 29
305 -21 29
306 -1 -6
307 -1 -6
308 -1 -6
309 -1 -6
310 -1 -6
311 -1 -6
312 -23 32
313 -23 32
314 -23 32
315 -23 32
316 -23 32
317 9 50
318 9 50
319 9 50
320 9 50
321 9 50
322 9 50
323 -37 33
324 -37 33
325 -37 33
326 -37 33
327 -37 33
328 -31 -24
329 -31 -24
330 -31 -24
331 -31 -24
332 -31 -24
333 -28 11
334 -28 11
335 -28 11
336 -28 11
337 -28 11
338 -28 11
339 33 25
340 33 25
341 33 25
342 33 25
343 33 25
344 33 25
345 40 -17
346 40 -17
347 24 -46
348 24 -46
349 24 -46
350 24 -46
351 24 -46
352 41 -23
353 41 -23
354 33 13
355 33 13
356 33 13
357 -45 -48
358 -46 -7
359 -46 -7
360 -46 -7
361 -46 -7
362 -4 40
363 -4 40
364 -4 40
365 -4 40
366 1 -19
367 1 -19
368 1 -19
369 1 16
370 1 16
371 1 16
372 -6 -50
373 -6 -50
374 -6 -50
375 -6 -50
376 -6 -50
377 -6 -50
378 -13 12
379 -13 12
380 -13 12
381 -13 12
382 44 33
383 44 33
384 44 33
385 44 33
386 2 -46
387 2 -46
388 2 -46
389 2 -46
390 2 -46
391 2 -46
392 -11 35
393 -11 35
394 -11 35
395 -11 35
396 -11 35
397 -11 35
398 -40 3
399 -40 3
400 -40 3
401 -41 -20
402 -41 -20
403 -41 -20
404 -41 -20
405 -41 -20
406 -41 -20
407 -41 -20
408 -31 -25
409 -31 -25
410 -31 -25
411 6 36
412 -31 -45
413 -31 -45
414 -31 -45
415 -31 -45
416 -31 -45
417 -31 -45
418 -31 -45
419 -46 -21
420 -46 -21
421 -46 -21
422 -46 -21
423 -46 -21
424 44 0
425 44 0
426 44 0
427 44 0
428 -16 -44
429 -16 -44
430 -16 -44
431 -16 -44
432 -16 -44
433 -34 24
434 -34 24
435 -34 24
436 -34 24
437 -34 24
438 5 17
439 5 17
440 5 17
441 -26 41
442 -26 41
443 -26 41
444 -26 41
445 -42 28
446 -42 28
447 -42 28
448 -42 28
449 -42 28
450 -42 28
451 -42 28
452 -42 28
453 33 12
454 33 12
455 33 12
456 33 12
457 33 12
458 33 12
459 33 12
460 11 48
461 11 48
462 11 48
463 11 48
464 44 -45
465 44 -45
466 44 -45
467 44 -45
468 44 -45
469 44 -45
470 -41 40
471 -41 40
472 -41 9
473 -41 9
474 -41 9
475 -14 -33
476 -14 -33
477 -14 -33
478 -14 -33
479 -14 -33
480 -33 43
481 -33 43
482 -33 43
483 -33 43
484 5 -20
485 5 -20
486 5 -20
487 5 -20
488 5 -20
489 47 2
490 47 2
491 47 2
492 47 2
493 49 -4
494 49 -4
495 49 -4
496 49 -4
497 49 -4
498 -40 -13
499 -40 -13
500 -40 -13
501 -40 -13
502 -40 -13
503 -40 -13
504 -40 -13
505 -41 -45
506 -41 -45
507 -41 -45
508 -41 -45
509 -41 -45
510 -41 -45
511 -41 -45
512 -48 -14
513 -48 -14
514 -48 -14
515 -48 -14
516 -48 -14
517 -48 -14
518 -48 -14
519 -48 -14
520 -42 29
521 -42 29
522 -42 29
523 -42 29
524 -42 29
525 9 -26
526 9 -26
527 9 -26
528 9 -26
529 9 -26
530 9 -26
531 9 -26
532 48 31
533 48 31
534 48 31
535 48 31
536 48 31
537 48 31
538 -14 -25
539 -14 -25
540 -14 -25
541 -14 -25
542 -14 -25
543 -14 -25
544 22 -24
545 22 -24
546 22 -24
547 22 -24
548 22 -24
549 22 -24
550 -44 -30
551 -44 -30
552 -44 -30
553 -44 -30
554 -44 -30
555 -44 -30
556 -44 -30
557 -12 23
558 -12 23
559 -12 23
560 -12 23
561 -12 23
562 -12 23
563 -12 23
564 -8 -40
565 -8 -40
566 -8 -40
567 -8 -40
568 -8 -40
569 -8 -40
570 -8 -40
571 -8 -40
572 -23 -1
573 -23 -1
574 -23 -1
575 -23 -1
576 -23 -1
577 -23 -1
578 -23 -1
579 6 -38
580 6 -38
581 6 -38
582 6 -38
583 29 31
584 29 31
585 35 -42
586 35 -42
587 35 -42
588 10 -5
589 10 -5
590 10 -5
591 -14 19
592 -14 19
593 -14 19
594 -14 19
595 -32 -24
596 -32 -24
597 48 -1
598 48 -1
599 48 -1
600 48 -1
601 48 -1
602 48 -1
603 26 34
604 26 34
605 26 34
606 26 34
607 26 34
608 26 34
609 26 34
610 26 34
611 20 -48
612 20 -48
613 20 -48
614 20 -48
615 -24 -28
616 -24 -28
617 -24 -28
618 -24 -28
619 -24 -28
620 10 -8
621 10 -8
622 10 -8
623 27 49
624 27 49
625 27 49
626 38 -40
627 38 -40
628 38 -40
629 12 20
630 12 20
631 12 20
632 12 20
633 -4 -21
634 -4 -21
635 -4 -21
636 -4 -21
637 -4 -21
638 -4 -21
639 -4 -21
640 -12 -18
641 8 -45
642 8 -45
643 8 -45
644 8 -45
645 21 31
646 21 31
647 21 31
648 21 31
649 21 31
650 43 -2
651 43 -2
652 -28 -12
653 -28 -12
654 -28 -12
655 -28 -12
656 -28 -12
657 -28 -12
658 -28 -12
659 30 0
660 30 0
661 -6 19
662 -6 19
663 -6 19
664 -6 19
665 -6 19
666 -6 19
667 -6 19
668 30 -37
669 30 -37
670 30 -37
671 30 -37
672 30 -37
673 -49 37
674 -49 37
675 -49 37
676 14 -1
677 14 -1
678 14 -1
679 22 -3
680 22 -3
681 22 -3
682 -17 43
683 -17 43
684 -17 43
685 -17 43
686 -17 43
687 14 0
688 14 0
689 14 0
690 14 0
691 14 0
692 38 -14
693 38 -14
694 38 -14
695 38 -14
696 38 -14
697 38 -14
698 38 -14
699 15 -38
700 15 -38
701 17 21
702 17 21
703 17 21
704 17 21
705 17 21
706 17 21
707 35 -34
708 35 -34
709 35 -34
710 35 -34
711 35 -34
712 35 -34
713 35 -34
714 35 -34
715 41 -48
716 41 -48
717 41 -48
718 34 18
719 34 18
720 34 18
721 34 18
722 -37 39
723 -37 39
724 -37 39
725 -37 39
726 -37 39
727 -37 39
728 44 34
729 44 34
730 44 34
731 44 34
732 -1 33
733 -1 33
734 -12 29
735 -12 29
736 -12 29
737 -50 0
738 -50 0
739 -50 0
740 -50 0
741 -50 0
742 -50 0
743 -50 0
744 -50 0
745 12 -7
746 12 -7
747 12 -7
748 4 -15
749 4 -15
750 46 10
751 46 10
752 46 10
753 46 10
754 0 -42
755 0 -42
756 0 -42
757 0 -42
758 0 -42
759 0 -42
760 0 -42
761 0 13
762 0 13
763 0 13
764 0 13
765 0 13
766 0 13
767 4 5
768 4 5
769 4 5
770 4 5
771 4 5
772 -22 27
773 -22 27
774 -22 27
775 -22 27
776 -22 27
777 -22 27
778 -45 -2
779 -45 -2
780 -45 -2
781 -45 -2
782 -45 -2
783 43 23
784 43 23
785 43 23
786 43 23
787 43 23
788 16 -2
789 16 -2
790 16 -2
791 -7 44
792 -7 44
793 -7 44
794 -35 -8
795 -35 -8
796 -35 -8
797 -35 -8
798 -35 -8
799 5 0
800 5 0
801 5 0
802 5 0
803 5 0
804 5 0
805 5 0
806 23 -9
807 23 -9
808 23 -9
809 23 -9
810 20 -8
811 20 -8
812 20 -8
813 17 -17
814 30 -31
815 30 -31
816 30 -31
817 30 -31
818 30 -31
819 -21 -2
820 -21 -2
821 -21 -2
822 -21 -2
823 -21 -2
824 -21 -2
825 34 43
826 34 43
827 34 43
828 34 43
829 -25 30
830 -25 30
831 -25 30
832 -25 30
833 -25 30
834 -25 30
835 7 39
836 7 39
837 7 39
838 7 39
839 7 39
840 7 39
841 7 39
842 7 39
843 -3 -27
844 -3 -27
845 -3 -27
846 -3 -27
847 -3 -27
848 -39 -36
849 -39 -36
850 -39 -36
851 -39 -36
852 -39 -36
853 -39 -36
854 -46 19
855 -46 19
856 -46 19
857 -46 19
858 -46 19
859 -46 19
860 -46 -30
861 -46 -30
862 -46 -30
863 -46 -30
864 -46 -30
865 -46 -30
866 -32 21
867 -32 21
868 -32 21
869 -32 21
870 -32 21
871 -32 21
872 -32 21
873 -6 -9
874 -6 -9
875 -6 -9
876 -6 -9
877 -6 -9
878 -6 -9
879 -32 -41
880 -32 -41
881 -32 -41
882 -32 -41
883 -32 -41
884 -32 -41
885 0 -28
886 0 -28
887 0 -28
888 0 -28
889 0 -28
890 0 -28
891 0 -28
892 27 -50
893 27 -50
894 27 -50
895 27 -50
896 27 -50
897 27 -50
898 -26 -18
899 -26 -18
900 -26 -18
901 -26 -5
902 -26 -5
903 -11 -46
904 -11 -46
905 -11 -46
906 -11 -46
907 -11 -46
908 42 33
909 42 33
910 42 33
911 42 33
912 34 28
913 34 28
914 34 28
915 34 28
916 -14 -31
917 -14 -31
918 -14 -31
919 -14 -31
920 -14 -31
921 -14 -31
922 -32 0
923 -32 0
924 -32 0
925 5 38
926 5 38
927 5 38
928 5 38
929 -45 -17
930 -45 -17
931 -45 -17
932 -45 -17
933 -46 -13
934 -46 -13
935 -46 -13
936 -46 -13
937 -46 -13
938 -46 -13
939 -13 50
940 -13 50
941 -13 50
942 -13 50
943 -13 50
944 -14 -43
945 -14 -43
946 -14 -43
947 -14 -43
948 -14 -43
DEMAND_SECTION
1 0
2 400
3 200
4 100
5 20
6 20
7 20
8 10
9 400
10 200
11 100
12 20
13 20
14 20
15 20
16 10
17 400
18 400
19 100
20 20
21 20
22 20
23 10
24 400
25 400
26 10
27 400
28 400
29 200
30 20
31 20
32 10
33 400
34 400
35 100
36 200
37 100
38 20
39 20
40 400
41 20
42 20
43 20
44 20
45 10
46 200
47 100
48 20
49 20
50 20
51 10
52 400
53 100
54 20
55 20
56 20
57 20
58 400
59 400
60 20
61 20
62 20
63 200
64 100
65 400
66 10
67 200
68 100
69 20
70 20
71 20
72 400
73 400
74 100
75 20
76 20
77 10
78 400
79 400
80 20
81 20
82 20
83 20
84 10
85 400
86 200
87 100
88 400
89 20
90 20
91 20
92 10
93 200
94 20
95 20
96 20
97 20
98 400
99 400
100 20
101 20
102 10
103 200
104 100
105 20
106 20
107 20
108 10
109 200
110 100
111 20
112 20
113 400
114 100
115 20
116 20
117 20
118 10
119 400
120 400
121 100
122 20
123 20
124 20
125 400
126 200
127 100
128 20
129 20
130 20
131 400
132 100
133 20
134 20
135 20
136 20
137 10
138 200
139 20
140 20
141 10
142 200
143 100
144 20
145 400
146 10
147 200
148 100
149 400
150 400
151 100
152 400
153 200
154 100
155 20
156 400
157 400
158 20
159 400
160 200
161 20
162 20
163 20
164 20
165 200
166 100
167 20
168 20
169 20
170 10
171 200
172 100
173 20
174 20
175 20
176 20
177 400
178 100
179 20
180 20
181 20
182 20
183 10
184 200
185 100
186 20
187 20
188 20
189 200
190 100
191 20
192 20
193 20
194 400
195 20
196 20
197 20
198 20
199 400
200 400
201 20
202 20
203 400
204 200
205 100
206 20
207 20
208 20
209 10
210 400
211 20
212 20
213 200
214 100
215 20
216 20
217 20
218 20
219 10
220 400
221 400
222 100
223 20
224 20
225 20
226 400
227 200
228 20
229 20
230 20
231 10
232 400
233 400
234 100
235 20
236 200
237 100
238 20
239 10
240 400
241 200
242 100
243 20
244 20
245 20
246 10
247 400
248 400
249 100
250 20
251 20
252 10
253 400
254 200
255 20
256 20
257 20
258 10
259 400
260 400
261 200
262 400
263 200
264 20
265 20
266 20
267 400
268 200
269 20
270 400
271 200
272 100
273 20
274 10
275 400
276 200
277 100
278 20
279 10
280 200
281 20
282 20
283 10
284 400
285 20
286 20
287 20
288 400
289 200
290 100
291 10
292 400
293 200
294 20
295 400
296 200
297 20
298 20
299 20
300 400
301 400
302 20
303 20
304 20
305 20
306 200
307 20
308 20
309 20
310 20
311 10
312 400
313 200
314 100
315 20
316 10
317 200
318 20
319 20
320 20
321 20
322 10
323 200
324 20
325 20
326 20
327 20
328 400
329 200
330 100
331 20
332 10
333 400
334 200
335 100
336 20
337 20
338 20
339 400
340 400
341 100
342 20
343 20
344 10
345 400
346 100
347 400
348 100
349 20
350 20
351 20
352 400
353 100
354 400
355 400
356 10
357 400
358 200
359 20
360 20
361 10
362 400
363 400
364 100
365 10
366 400
367 200
368 20
369 400
370 400
371 200
372 400
373 100
374 20
375 20
376 20
377 20
378 400
379 200
380 20
381 10
382 400
383 400
384 20
385 10
386 400
387 400
388 20
389 20
390 20
391 20
392 400
393 200
394 100
395 20
396 20
397 20
398 400
399 200
400 20
401 400
402 400
403 100
404 20
405 20
406 20
407 20
408 400
409 200
410 100
411 400
412 400
413 200
414 100
415 20
416 20
417 20
418 20
419 400
420 400
421 100
422 20
423 20
424 400
425 20
426 20
427 20
428 400
429 20
430 20
431 20
432 10
433 400
434 200
435 100
436 20
437 20
438 200
439 100
440 10
441 400
442 200
443 20
444 20
445 400
446 200
447 100
448 20
449 20
450 20
451 20
452 10
453 200
454 100
455 20
456 20
457 20
458 20
459 10
460 400
461 20
462 20
463 20
464 400
465 100
466 20
467 20
468 20
469 20
470 400
471 100
472 400
473 100
474 20
475 400
476 200
477 20
478 20
479 20
480 400
481 200
482 100
483 10
484 400
485 200
486 100
487 20
488 20
489 200
490 20
491 20
492 20
493 400
494 20
495 20
496 20
497 10
498 200
499 100
500 20
501 20
502 20
503 20
504 10
505 400
506 400
507 100
508 20
509 20
510 20
511 10
512 400
513 200
514 100
515 20
516 20
517 20
518 20
519 10
520 400
521 200
522 20
523 20
524 10
525 400
526 200
527 100
528 20
529 20
530 20
531 20
532 400
533 400
534 20
535 20
536 20
537 20
538 400
539 400
540 100
541 20
542 20
543 20
544 400
545 200
546 100
547 20
548 20
549 10
550 400
551 400
552 20
553 20
554 20
555 20
556 10
557 400
558 200
559 100
560 20
561 20
562 20
563 20
564 400
565 200
566 100
567 20
568 20
569 20
570 20
571 10
572 200
573 100
574 20
575 20
576 20
577 20
578 10
579 200
580 100
581 20
582 20
583 200
584 100
585 400
586 400
587 200
588 400
589 20
590 10
591 400
592 200
593 20
594 20
595 200
596 100
597 200
598 100
599 20
600 20
601 20
602 20
603 400
604 400
605 100
606 20
607 20
608 20
609 20
610 10
611 400
612 100
613 20
614 10
615 400
616 400
617 100
618 20
619 10
620 400
621 400
622 200
623 400
624 400
625 200
626 200
627 100
628 10
629 400
630 400
631 100
632 20
633 400
634 400
635 20
636 20
637 20
638 20
639 10
640 400
641 200
642 100
643 20
644 20
645 200
646 100
647 20
648 20
649 10
650 200
651 100
652 400
653 200
654 100
655 20
656 20
657 20
658 10
659 400
660 10
661 400
662 400
663 100
664 20
665 20
666 20
667 20
668 200
669 100
670 20
671 20
672 20
673 400
674 100
675 10
676 200
677 100
678 10
679 400
680 20
681 20
682 400
683 200
684 100
685 20
686 10
687 400
688 200
689 20
690 20
691 20
692 400
693 200
694 100
695 20
696 20
697 20
698 10
699 400
700 200
701 400
702 100
703 20
704 20
705 20
706 20
707 400
708 400
709 100
710 20
711 20
712 20
713 20
714 10
715 400
716 200
717 20
718 400
719 400
720 20
721 10
722 400
723 200
724 20
725 20
726 20
727 20
728 200
729 20
730 20
731 20
732 200
733 100
734 400
735 200
736 20
737 400
738 400
739 100
740 20
741 20
742 20
743 20
744 10
745 400
746 400
747 100
748 400
749 400
750 400
751 20
752 20
753 10
754 400
755 400
756 100
757 20
758 20
759 20
760 20
761 400
762 400
763 20
764 20
765 20
766 20
767 200
768 100
769 20
770 20
771 20
772 400
773 400
774 20
775 20
776 20
777 10
778 400
779 20
780 20
781 20
782 10
783 400
784 20
785 20
786 20
787 10
788 400
789 100
790 10
791 400
792 400
793 200
794 400
795 400
796 100
797 20
798 20
799 400
800 200
801 100
802 20
803 20
804 20
805 10
806 200
807 100
808 20
809 20
810 200
811 100
812 20
813 400
814 400
815 200
816 100
817 20
818 10
819 400
820 200
821 100
822 20
823 20
824 10
825 400
826 20
827 20
828 20
829 400
830 100
831 20
832 20
833 20
834 20
835 400
836 200
837 100
838 20
839 20
840 20
841 20
842 10
843 400
844 20
845 20
846 20
847 10
848 400
849 400
850 20
851 20
852 20
853 20
854 400
855 200
856 100
857 20
858 20
859 20
860 400
861 400
862 20
863 20
864 20
865 20
866 400
867 200
868 20
869 20
870 20
871 20
872 10
873 200
874 100
875 20
876 20
877 20
878 10
879 200
880 100
881 20
882 20
883 20
884 10
885 400
886 400
887 100
888 20
889 20
890 20
891 10
892 400
893 100
894 20
895 20
896 20
897 20
898 400
899 20
900 20
901 400
902 20
903 200
904 100
905 20
906 20
907 20
908 200
909 100
910 20
911 10
912 400
913 400
914 20
915 10
916 400
917 200
918 20
919 20
920 20
921 10
922 400
923 200
924 20
925 400
926 100
927 20
928 20
929 400
930 200
931 100
932 20
933 200
934 100
935 20
936 20
937 20
938 20
939 400
940 200
941 20
942 20
943 10
944 400
945 20
946 20
947 20
948 20
DEPOT_SECTION
1
-1
EOF