SDVRP instances/custom_instances/p10_14_splitx10_0.sol
947 -6 7 5 4 223 224 221 220 219 222 793 795 796 794 797 -19 20 22 21 16 18 17 673 674 672 289 287 -24 25 23 333 336 335 337 334 332 378 379 380 -27 26 538 537 639 -28 368 370 369 760 761 -31 29 30 204 202 206 208 203 207 205 99 100 98 101 97 147 146 -37 36 38 35 940 941 938 939 942 791 792 790 -53 54 51 743 741 737 742 739 740 738 736 781 777 780 778 779 573 577 -57 61 59 58 60 411 412 413 415 417 416 414 882 883 880 878 879 -68 70 69 66 67 156 157 155 470 469 288 290 -73 71 76 75 72 74 198 199 201 200 -86 85 84 698 699 642 643 641 640 580 579 581 578 -90 88 89 627 626 625 468 463 465 464 467 466 716 715 714 209 211 -113 112 116 115 117 114 355 354 353 453 456 458 457 455 452 454 799 -123 122 119 118 120 121 707 709 261 262 264 -124 125 543 544 812 620 -135 131 130 136 134 133 132 662 665 664 660 661 377 -143 141 142 608 606 609 603 602 604 607 605 64 65 645 703 704 702 705 701 -145 144 273 270 271 272 269 849 850 847 848 -148 149 150 617 616 615 614 618 873 874 875 877 876 -153 154 373 375 374 376 371 372 163 162 158 161 159 160 902 904 906 903 905 568 566 564 567 -169 167 164 166 168 165 509 507 508 356 33 34 32 881 172 174 540 542 539 541 -170 173 175 171 918 917 920 919 916 915 477 478 474 476 475 236 235 238 237 -226 229 225 230 228 227 410 927 926 925 924 731 732 763 764 765 762 -231 232 234 912 911 583 582 770 768 769 -252 253 675 676 677 687 686 688 689 690 804 798 803 -255 256 680 679 217 212 213 214 218 423 425 424 426 650 649 693 694 696 697 691 695 692 807 -257 254 787 789 788 678 659 658 805 808 806 811 810 809 -276 275 277 278 274 712 713 263 706 265 711 817 815 816 813 814 548 547 546 -282 279 280 281 624 622 623 827 824 826 825 647 644 648 646 -293 291 292 352 351 344 345 95 93 92 94 96 800 -298 295 294 297 296 363 364 361 391 396 395 394 393 392 663 666 -299 304 302 301 303 315 311 312 314 831 830 832 771 772 -308 305 487 483 484 486 485 528 524 525 527 748 -310 307 306 309 634 635 637 636 638 632 633 366 367 365 747 -313 481 482 479 480 195 194 193 196 197 440 441 443 442 -322 323 324 325 326 44 42 41 39 43 40 722 725 723 726 724 721 284 285 283 286 776 773 775 774 -328 329 327 331 330 408 409 407 595 899 897 898 -360 359 357 358 260 258 259 516 515 514 512 513 937 932 936 935 934 933 -362 316 318 319 317 321 320 460 461 459 462 839 837 841 835 840 836 838 834 -381 383 384 251 249 248 247 250 246 727 728 730 729 908 910 907 909 -389 388 387 386 390 385 755 759 758 756 753 754 757 -397 398 399 55 52 56 267 266 268 472 473 471 -401 400 404 402 405 63 421 420 419 418 422 -431 429 430 428 427 943 945 946 944 947 565 569 570 563 103 102 107 104 106 105 845 846 843 -434 435 436 183 185 184 187 186 520 523 519 521 522 446 444 449 450 448 445 447 451 79 80 870 -439 437 438 628 630 631 629 47 48 50 46 49 45 700 -503 502 500 501 498 499 497 517 511 518 929 931 930 928 62 403 406 872 -505 504 506 510 245 240 242 239 241 244 243 138 137 139 140 852 851 -526 529 530 128 127 126 129 210 349 348 347 346 350 893 891 896 892 895 894 611 612 613 610 -545 710 708 87 91 584 585 586 669 668 667 671 670 -562 681 684 683 682 685 11 9 13 12 15 10 14 8 300 593 -575 571 576 574 572 921 923 922 2 3 1 821 820 819 -588 587 589 746 744 745 621 619 -592 591 590 557 559 560 556 558 561 733 735 734 -594 555 551 550 554 553 552 549 861 860 863 864 859 862 -653 655 652 656 657 651 654 191 192 190 188 189 900 901 818 823 822 -719 720 718 717 341 343 340 342 338 339 766 -752 750 749 751 111 109 110 108 491 488 489 490 601 596 599 598 600 597 493 494 496 492 495 216 215 802 801 -767 233 914 913 382 532 534 533 536 535 531 785 782 783 784 786 -828 829 833 78 82 83 81 77 868 871 865 866 -842 844 152 151 890 888 887 886 885 884 889 -857 856 854 855 858 853 181 177 180 179 176 182 178 433 432 867 869 0 





OBJ=
5725.465
BEST_KNOWN=
0.000